Route #1: 1 35 47 9 36 54 12 54 15 54 8 9 20 55 14 55 9 1 
Route #2: 1 27 18 41 18 52 34 64 44 43 42 24 57 24 50 25 50 52 1 
Route #3: 1 46 49 48 37 48 22 62 29 63 3 63 23 63 2 64 17 52 7 1 
Route #4: 1 9 53 28 46 16 6 16 58 21 38 16 30 46 31 46 5 1 
Route #5: 1 18 13 40 59 11 39 11 40 10 51 19 51 26 51 33 4 45 33 18 1 
Cost 729.0
